NAME : local_2
TYPE : ATSP
DIMENSION : 10
EDGE_WEIGHT_TYPE : EXPLICIT
EDGE_WEIGHT_FORMAT : FULL_MATRIX
EDGE_WEIGHT_SECTION
0 567 10000000 315 10000000 545 10000000 10000000 10000000 962 
0 0 10000000 638 701 647 10000000 949 552 487 
0 10000000 0 10000000 615 10000000 660 471 941 857 
0 638 10000000 0 10000000 832 10000000 10000000 10000000 1053 
0 701 615 10000000 0 10000000 501 376 372 292 
0 647 10000000 832 10000000 0 10000000 10000000 10000000 10000000 
0 10000000 660 10000000 501 10000000 0 268 834 754 
0 947 471 10000000 376 10000000 268 0 734 631 
0 552 941 10000000 372 10000000 834 734 0 128 
0 10000000 10000000 10000000 10000000 10000000 10000000 10000000 10000000 0 
EOF